p cnf 7230 17
-7063 -7085 7122 0
-4004 -7101 -7127 0
-3900 -7095 -7125 0
-3896 -7093 -7123 0
4004 -7128 0
3900 -7126 0
3896 -7124 0
7127 7128 0
7125 7126 0
7123 7124 0
7101 -7128 0
7095 -7126 0
7093 -7124 0
-7121 -7122 0
7103 -7130 0
4008 -7130 0
7121 7122 0
